(set-logic QF_LRA)
(declare-fun x1 () Real)
(declare-fun x2 () Real)
(declare-fun x3 () Real)
(declare-fun x4 () Real)
(declare-fun x5 () Real)
(declare-fun x6 () Real)
(declare-fun x7 () Real)
(declare-fun x8 () Real)
(declare-fun x9 () Real)
(declare-fun x10 () Real)
(declare-fun x11 () Real)
(declare-fun x12 () Real)
(declare-fun x13 () Real)
(declare-fun x14 () Real)
(declare-fun x15 () Real)
(declare-fun x16 () Real)
(declare-fun x17 () Real)
(declare-fun x18 () Real)
(declare-fun x19 () Real)
(declare-fun x20 () Real)
(declare-fun x21 () Real)
(declare-fun x22 () Real)
(declare-fun x23 () Real)
(declare-fun x24 () Real)
(declare-fun x25 () Real)
(declare-fun x26 () Real)
(declare-fun x27 () Real)
(declare-fun x28 () Real)
(declare-fun x29 () Real)
(declare-fun x30 () Real)

(assert (>= (- -1 ( + ( + ( + ( + ( + ( + ( + ( + x5 (* -1 x6) ) (* -3 x3) ) (* 2 x2) ) (* -3 x1) ) (* 4 x4) ) (* -3 x7) ) (* -4 x8) ) (* -5 x9) )) 0))
(assert (>= (- -1 ( + ( + ( + ( + ( + ( + ( + ( + (* -3 x4) (* -2 x9) ) (* 5 x7) ) (* -1 x6) ) (* 5 x5) ) (* -5 x3) ) (* -4 x1) ) (* -2 x8) ) x10 )) 0))
(assert (>= (- 2 ( + ( + ( + ( + ( + ( + ( + ( + (* -2 x11) (* 2 x5) ) (* -1 x2) ) (* 4 x1) ) (* -3 x3) ) x4 ) (* -4 x6) ) (* -5 x7) ) (* 2 x8) )) 0))
(assert (>= (- 4 ( + ( + ( + ( + ( + ( + ( + ( + (* 2 x3) x12 ) x10 ) (* 2 x6) ) (* -1 x5) ) (* 4 x4) ) (* 4 x7) ) (* -4 x8) ) (* 5 x9) )) 0))
(assert (>= (- 2 ( + ( + ( + ( + ( + ( + ( + ( + (* -5 x8) (* 4 x13) ) (* 3 x6) ) x5 ) (* -1 x4) ) (* -2 x3) ) (* -3 x1) ) (* -3 x2) ) (* -3 x9) )) 0))
(assert (>= (- 2 ( + ( + ( + ( + ( + ( + ( + ( + (* 4 x5) (* 3 x10) ) (* -1 x9) ) (* 2 x6) ) (* -3 x3) ) (* -1 x4) ) x8 ) (* -5 x12) ) (* 2 x14) )) 0))
(assert (>= (- -1 ( + ( + ( + ( + ( + ( + ( + ( + (* -1 x8) (* 3 x7) ) (* -2 x6) ) (* -4 x4) ) (* 3 x1) ) (* -2 x3) ) (* -2 x5) ) (* -4 x10) ) (* -5 x15) )) 0))
(assert (>= (- 1 ( + ( + ( + ( + ( + ( + ( + ( + (* 2 x8) (* -5 x9) ) (* -3 x7) ) (* -3 x4) ) (* -1 x1) ) (* 4 x3) ) (* 2 x5) ) (* -1 x6) ) (* -3 x16) )) 0))
(assert (>= (- -2 ( + ( + ( + ( + ( + ( + ( + ( + x4 x7 ) (* -3 x5) ) (* -5 x2) ) (* 2 x3) ) x6 ) (* 3 x8) ) (* 4 x11) ) (* 2 x17) )) 0))
(assert (>= (- -5 ( + ( + ( + ( + ( + ( + ( + ( + (* -2 x18) (* -4 x3) ) (* 3 x1) ) (* -5 x4) ) (* 2 x5) ) (* -2 x6) ) (* -3 x7) ) (* 5 x8) ) (* -2 x11) )) 0))
(assert (>= (- 4 ( + ( + ( + ( + ( + ( + ( + ( + (* -4 x8) (* -1 x10) ) (* -2 x7) ) (* -1 x3) ) (* -5 x1) ) (* 2 x4) ) (* -3 x5) ) (* -2 x15) ) (* -5 x19) )) 0))
(assert (>= (- 0 ( + ( + ( + ( + ( + ( + ( + ( + x1 (* -5 x19) ) (* 5 x15) ) (* -4 x10) ) (* 2 x5) ) (* -1 x3) ) (* 3 x7) ) (* -4 x8) ) (* 4 x20) )) 0))
(assert (>= (- -5 ( + ( + ( + ( + ( + ( + ( + ( + (* -5 x3) (* -5 x21) ) (* 3 x10) ) (* -3 x4) ) (* -3 x1) ) (* 4 x5) ) (* 3 x7) ) (* 4 x8) ) (* -1 x19) )) 0))
(assert (>= (- 0 ( + ( + ( + ( + ( + ( + ( + ( + (* -1 x2) (* -3 x11) ) x8 ) (* 2 x7) ) (* 4 x6) ) (* -1 x4) ) (* 3 x5) ) (* -5 x17) ) (* 5 x22) )) 0))
(assert (>= (- 4 ( + ( + ( + ( + ( + ( + ( + ( + (* -1 x9) (* 5 x8) ) (* -3 x6) ) (* -5 x4) ) (* -4 x3) ) (* -4 x10) ) (* -1 x12) ) (* 4 x14) ) x23 )) 0))
(assert (>= (- 4 ( + ( + ( + ( + ( + ( + ( + ( + (* 4 x22) (* -4 x11) ) (* 2 x8) ) (* 3 x7) ) x6 ) (* -4 x4) ) x5 ) (* -1 x17) ) (* 4 x24) )) 0))
(assert (>= (- -3 ( + ( + ( + ( + ( + ( + ( + ( + (* 3 x11) (* 2 x24) ) x17 ) (* -4 x8) ) (* -5 x4) ) (* -4 x5) ) (* -5 x6) ) (* -3 x22) ) (* 4 x25) )) 0))
(assert (>= (- 5 ( + ( + ( + ( + ( + ( + ( + ( + (* -5 x5) (* -4 x10) ) (* -1 x7) ) (* -3 x1) ) (* -4 x3) ) x4 ) (* -1 x15) ) x19 ) (* 3 x26) )) 0))
(assert (>= (- 0 ( + ( + ( + ( + ( + ( + ( + ( + x5 (* -5 x27) ) (* -4 x10) ) (* 2 x3) ) (* 2 x1) ) (* 2 x7) ) (* 4 x15) ) (* 3 x19) ) (* -5 x26) )) 0))
(assert (>= (- -3 ( + ( + ( + ( + ( + ( + ( + ( + (* -4 x12) (* -3 x28) ) (* 2 x8) ) (* 3 x6) ) (* -5 x5) ) (* 3 x3) ) x4 ) (* -5 x9) ) (* -1 x10) )) 0))
(assert (>= (- 3 ( + ( + ( + ( + ( + ( + ( + ( + (* 3 x29) (* 4 x16) ) (* 4 x9) ) x5 ) (* 2 x4) ) (* 3 x3) ) (* -5 x1) ) (* 2 x7) ) x8 )) 0))
(assert (>= (- -4 ( + ( + ( + ( + ( + ( + ( + ( + (* -1 x6) (* -4 x30) ) x10 ) (* 3 x4) ) (* -3 x3) ) (* -5 x1) ) (* 5 x5) ) (* 5 x7) ) x8 )) 0))
(assert (>= (- -5 ( + ( + ( + ( + ( + (* -1 x7) (* 4 x9) ) (* -2 x4) ) (* -1 x1) ) (* 4 x8) ) (* 5 x10) )) 0))
(assert (>= (- 3 (* -5 x30)) 0))
(assert (>= (- 5 ( + ( + ( + (* -1 x3) (* -4 x13) ) x4 ) x8 )) 0))
(assert (>= (- -5 ( + ( + ( + ( + (* 2 x8) (* 2 x14) ) (* -1 x4) ) x10 ) x23 )) 0))
(assert (>= (- 5 ( + ( + ( + ( + ( + ( + ( + ( + (* -1 x3) (* 3 x26) ) (* -4 x19) ) (* 5 x15) ) (* 5 x4) ) (* 5 x1) ) (* 2 x5) ) (* 3 x7) ) x10 )) 0))
(assert (>= (- 1 ( + ( + ( + ( + ( + ( + ( + ( + (* -1 x17) (* 2 x25) ) (* 4 x22) ) x5 ) (* 4 x4) ) (* -5 x6) ) (* 3 x8) ) (* 4 x11) ) (* -3 x24) )) 0))
(assert (>= (- -1 ( + ( + ( + ( + ( + ( + (* -4 x12) (* 3 x23) ) (* -1 x14) ) (* 3 x6) ) (* 3 x3) ) (* 2 x8) ) (* 2 x9) )) 0))
(assert (>= (- -5 ( + ( + ( + ( + ( + ( + ( + (* -1 x6) (* 2 x7) ) (* 2 x5) ) (* -4 x4) ) (* 5 x8) ) (* -2 x11) ) (* -1 x17) ) (* -2 x22) )) 0))
(assert (>= (- -4 ( + ( + ( + ( + ( + (* -2 x7) (* 2 x22) ) (* -4 x11) ) (* 2 x8) ) (* 2 x5) ) (* 2 x4) )) 0))
(assert (>= (- -5 ( + ( + ( + ( + ( + ( + (* -2 x11) x7 ) (* 4 x2) ) (* 2 x3) ) (* -2 x5) ) (* -3 x8) ) (* -3 x17) )) 0))
(assert (>= (- -3 ( + ( + ( + ( + ( + ( + ( + ( + (* -3 x22) (* -5 x25) ) (* -5 x24) ) (* 3 x17) ) (* -2 x11) ) (* 2 x8) ) (* -4 x6) ) x5 ) (* -1 x4) )) 0))
(assert (>= (- -4 (* -3 x29)) 0))
(assert (>= (- 3 (* -3 x15)) 0))
(assert (>= (- 0 ( + ( + ( + ( + ( + (* 5 x5) (* 3 x22) ) (* 4 x6) ) (* 2 x2) ) (* 5 x7) ) (* 5 x11) )) 0))
(assert (>= (- 1 ( + ( + ( + ( + ( + ( + ( + (* -1 x5) x24 ) (* -1 x4) ) x6 ) (* -3 x8) ) (* -1 x11) ) (* -4 x17) ) (* 2 x22) )) 0))
(assert (>= (- 2 ( + ( + ( + ( + ( + ( + (* 4 x7) (* -4 x12) ) (* 5 x9) ) x8 ) (* -5 x6) ) (* -4 x4) ) x5 )) 0))
(assert (>= (- -5 ( + (* -5 x2) (* -3 x7) )) 0))
(assert (>= (- 4 ( + ( + ( + ( + ( + ( + ( + x6 (* -3 x7) ) (* 3 x5) ) (* 4 x4) ) x3 ) (* 2 x1) ) (* 3 x8) ) (* -2 x15) )) 0))
(assert (>= (- -1 ( + ( + ( + ( + ( + x14 (* 5 x8) ) x3 ) (* 2 x4) ) (* -2 x6) ) (* 3 x23) )) 0))
(assert (>= (- 3 ( + ( + (* -1 x3) (* 4 x17) ) (* -2 x5) )) 0))
(assert (>= (- 0 ( + ( + ( + ( + ( + ( + ( + ( + (* -1 x8) (* -5 x21) ) (* -1 x19) ) (* -1 x10) ) (* -1 x7) ) (* -2 x4) ) (* 5 x1) ) (* 4 x3) ) (* 2 x5) )) 0))
(assert (>= (- -3 ( + ( + ( + ( + ( + ( + x4 (* -3 x18) ) (* -3 x7) ) (* -1 x3) ) (* -4 x6) ) (* 2 x8) ) (* -2 x11) )) 0))
(assert (>= (- 0 ( + ( + ( + x3 (* -3 x18) ) (* -5 x4) ) (* 3 x8) )) 0))
(assert (>= (- 2 ( + ( + ( + ( + ( + (* -1 x7) (* 2 x5) ) (* 5 x4) ) (* -3 x2) ) (* -3 x3) ) (* 5 x8) )) 0))
(assert (>= (- 1 (* -5 x8)) 0))
(assert (>= (- -5 x9) 0))
(assert (>= (- 0 ( + ( + ( + ( + ( + (* -2 x14) (* -1 x10) ) (* -3 x6) ) (* 5 x4) ) (* -2 x5) ) (* -4 x12) )) 0))
(assert (>= (- -2 ( + ( + ( + ( + ( + ( + ( + ( + (* 4 x10) (* -3 x14) ) (* 4 x9) ) (* 5 x8) ) (* 3 x3) ) (* -1 x4) ) (* -4 x6) ) (* -5 x12) ) (* -3 x23) )) 0))
(assert (>= (- -5 (* -5 x9)) 0))
(assert (>= (- -5 ( + ( + ( + ( + ( + (* 2 x11) (* -3 x25) ) (* -3 x17) ) (* -2 x5) ) (* -4 x4) ) (* 2 x24) )) 0))
(assert (>= (- -2 ( + ( + ( + ( + ( + ( + (* 2 x7) (* -1 x22) ) (* -5 x17) ) (* 3 x5) ) (* 4 x2) ) (* -3 x4) ) (* 2 x8) )) 0))
(assert (>= (- 5 ( + ( + ( + (* 4 x22) (* 5 x6) ) (* -5 x4) ) (* 3 x8) )) 0))
(assert (>= (- 5 ( + (* 5 x7) (* 3 x10) )) 0))
(assert (>= (- -5 (* -4 x7)) 0))
(assert (>= (- -4 (* 5 x6)) 0))
(assert (>= (- 2 ( + ( + ( + ( + ( + (* -4 x5) (* 2 x17) ) (* 3 x11) ) (* -2 x7) ) (* -3 x6) ) (* 5 x4) )) 0))
(assert (>= (- 4 ( + ( + (* 2 x8) x5 ) (* 3 x1) )) 0))
(assert (>= (- -1 ( + ( + ( + ( + ( + ( + (* 3 x10) (* 5 x15) ) x7 ) (* -5 x5) ) (* -1 x3) ) (* 3 x1) ) x26 )) 0))
(assert (>= (- -4 ( + ( + ( + ( + (* -3 x9) (* -5 x3) ) (* -2 x4) ) x5 ) x7 )) 0))
(assert (>= (- -2 (* -5 x4)) 0))
(assert (>= (- -4 ( + ( + ( + (* 3 x8) (* -2 x1) ) (* 2 x2) ) x5 )) 0))
(assert (>= (- 0 (* 3 x11)) 0))
(assert (>= (- -3 ( + ( + ( + ( + ( + ( + ( + ( + (* -1 x23) (* -4 x14) ) (* 3 x12) ) (* 4 x10) ) (* 4 x8) ) (* 2 x6) ) (* 5 x3) ) (* -2 x4) ) (* 4 x9) )) 0))
(assert (>= (- 0 ( + ( + ( + ( + ( + (* -1 x5) (* 3 x8) ) (* -1 x2) ) (* 4 x4) ) (* -3 x6) ) (* 4 x7) )) 0))
(assert (>= (- -3 ( + ( + ( + ( + ( + ( + ( + (* 3 x15) (* -2 x8) ) (* -2 x7) ) (* -5 x6) ) (* -5 x4) ) (* 5 x3) ) (* 5 x1) ) x5 )) 0))
(assert (>= (- -1 ( + ( + ( + ( + ( + ( + (* -3 x1) (* -2 x4) ) x3 ) (* -2 x5) ) (* 4 x8) ) (* -2 x10) ) (* -3 x15) )) 0))
(assert (>= (- 2 ( + ( + ( + ( + (* 2 x8) x3 ) (* -4 x1) ) (* -5 x5) ) (* -3 x7) )) 0))
(assert (>= (- -4 (* 5 x20)) 0))
(assert (>= (- -2 ( + ( + ( + ( + ( + ( + ( + (* -5 x3) (* -4 x10) ) x7 ) (* -2 x1) ) (* -4 x4) ) (* -3 x6) ) x8 ) (* -5 x9) )) 0))
(assert (>= (- 0 ( + ( + ( + ( + (* 4 x7) (* -3 x12) ) (* -2 x5) ) x3 ) (* -1 x8) )) 0))
(assert (>= (- -5 ( + ( + ( + ( + ( + ( + (* -3 x15) (* 2 x20) ) x19 ) x1 ) (* -1 x3) ) (* 2 x8) ) (* -2 x10) )) 0))
(assert (>= (- -3 ( + ( + ( + (* -2 x5) (* -4 x7) ) (* 5 x8) ) (* 2 x11) )) 0))
(assert (>= (- -3 ( + ( + (* 4 x3) x7 ) (* -5 x10) )) 0))
(assert (>= (- 5 ( + ( + ( + ( + (* -1 x6) (* 4 x10) ) (* 5 x7) ) (* -3 x8) ) (* 2 x30) )) 0))
(assert (>= (- -4 ( + ( + ( + (* -4 x4) x7 ) (* -2 x3) ) x10 )) 0))
(assert (>= (- 1 ( + (* 3 x3) (* -3 x11) )) 0))
(assert (>= (- -3 ( + ( + (* 4 x12) (* 2 x3) ) (* 3 x8) )) 0))
(assert (>= (- -1 ( + ( + ( + ( + ( + ( + ( + ( + x5 (* -4 x21) ) (* 3 x10) ) (* 4 x4) ) (* -3 x1) ) (* -5 x3) ) (* 4 x7) ) (* -2 x8) ) (* -3 x19) )) 0))
(assert (>= (- -1 ( + (* 5 x3) (* 5 x8) )) 0))
(assert (>= (- 3 (* -1 x1)) 0))
(assert (>= (- 4 ( + ( + ( + ( + ( + ( + (* -2 x10) (* -1 x12) ) (* 4 x8) ) x6 ) (* -2 x4) ) (* 5 x3) ) (* 2 x28) )) 0))
(assert (>= (- -1 ( + ( + ( + ( + ( + (* 2 x3) (* 3 x19) ) (* -1 x7) ) (* 4 x1) ) (* 2 x5) ) (* -5 x10) )) 0))
(assert (>= (- 3 (* 2 x8)) 0))
(assert (>= (- 4 ( + ( + (* 3 x4) (* 2 x6) ) (* 4 x7) )) 0))
(assert (>= (- -3 ( + ( + ( + (* 2 x4) (* -4 x23) ) (* -2 x8) ) (* -2 x12) )) 0))
(assert (>= (- -1 ( + ( + ( + (* -5 x4) (* 3 x16) ) (* 5 x3) ) (* 2 x7) )) 0))
(assert (>= (- 4 ( + ( + ( + ( + ( + ( + (* -4 x15) (* -1 x3) ) (* -5 x1) ) (* -1 x5) ) (* 2 x7) ) (* 5 x10) ) (* 5 x26) )) 0))
(assert (>= (- 2 ( + ( + ( + (* -2 x24) (* 3 x17) ) (* -5 x7) ) (* -5 x22) )) 0))
(assert (>= (- 2 ( + ( + ( + ( + ( + (* 5 x21) (* 5 x19) ) x8 ) (* -5 x7) ) (* -2 x5) ) (* -3 x4) )) 0))
(assert (>= (- 0 ( + ( + ( + ( + (* 4 x8) (* 5 x29) ) (* -2 x16) ) (* -4 x1) ) (* -5 x5) )) 0))
(assert (>= (- -1 ( + ( + ( + ( + (* 3 x7) (* 4 x11) ) (* -1 x4) ) (* -3 x3) ) (* 2 x5) )) 0))
(assert (>= (- 5 ( + ( + ( + ( + (* -3 x5) (* -2 x8) ) (* 4 x1) ) (* -1 x4) ) (* 2 x6) )) 0))
(assert (>= (- -3 ( + ( + ( + ( + ( + ( + ( + (* 2 x5) (* 3 x30) ) (* -4 x7) ) (* -2 x3) ) (* -4 x1) ) (* -1 x6) ) (* 2 x8) ) (* -4 x10) )) 0))
(assert (>= (- -4 ( + ( + ( + ( + ( + ( + ( + (* -2 x7) (* -1 x27) ) (* -3 x19) ) (* -3 x15) ) (* -1 x3) ) (* -1 x1) ) (* -2 x5) ) (* -5 x10) )) 0))
(assert (>= (- 1 ( + ( + (* -5 x7) (* -5 x6) ) (* -2 x10) )) 0))
(assert (>= (- 0 ( + ( + (* 2 x3) (* 5 x1) ) (* 5 x6) )) 0))
(assert (>= (- -4 ( + ( + ( + (* 4 x5) (* -4 x11) ) (* 4 x7) ) (* 5 x18) )) 0))
(assert (>= (- 2 ( + ( + ( + (* -3 x8) (* 2 x6) ) (* -2 x9) ) (* 5 x10) )) 0))
(assert (>= (- -5 ( + ( + ( + ( + ( + ( + ( + ( + (* 2 x1) (* -1 x7) ) (* -1 x4) ) (* -3 x3) ) (* -4 x5) ) (* 5 x6) ) (* -3 x8) ) (* -3 x11) ) (* -5 x18) )) 0))
(assert (>= (- -4 ( + ( + ( + ( + ( + (* 3 x9) (* -3 x12) ) (* -2 x8) ) (* -3 x4) ) (* 5 x7) ) (* 2 x10) )) 0))
(assert (>= (- 0 ( + ( + ( + ( + ( + ( + ( + x17 (* -4 x22) ) (* 4 x11) ) (* -2 x8) ) (* 5 x6) ) (* -2 x5) ) (* -2 x7) ) (* -2 x24) )) 0))
(assert (>= (- -5 ( + ( + ( + (* 4 x3) (* -4 x7) ) (* 3 x5) ) (* 2 x2) )) 0))
(assert (>= (- 3 ( + ( + ( + ( + ( + ( + ( + ( + (* -1 x5) (* -1 x15) ) (* -2 x10) ) (* 4 x8) ) (* 4 x7) ) (* 4 x3) ) (* 3 x1) ) (* -2 x4) ) (* -3 x6) )) 0))
(assert (>= (- -2 (* 3 x6)) 0))
(assert (>= (- 1 ( + ( + ( + ( + ( + ( + ( + (* 4 x4) (* -5 x8) ) (* -2 x1) ) (* -2 x3) ) (* -2 x5) ) (* -1 x6) ) (* 4 x7) ) (* 3 x30) )) 0))
(assert (>= (- 5 ( + ( + ( + ( + ( + ( + (* -3 x1) (* -3 x5) ) (* 5 x7) ) (* 4 x15) ) (* -5 x19) ) (* -3 x26) ) (* -2 x27) )) 0))
(assert (>= (- 0 ( + ( + ( + ( + ( + ( + ( + (* -2 x24) (* 3 x22) ) (* 3 x17) ) (* -5 x7) ) (* -5 x6) ) (* -1 x5) ) (* 2 x4) ) (* 4 x8) )) 0))
(assert (>= (- 3 ( + ( + ( + ( + (* 3 x6) (* -4 x17) ) (* -3 x5) ) (* -4 x4) ) (* 2 x8) )) 0))
(assert (>= (- 0 ( + ( + ( + ( + ( + ( + ( + (* -2 x1) (* -3 x8) ) (* -4 x6) ) (* 2 x4) ) (* -3 x5) ) (* -3 x7) ) x11 ) (* -4 x18) )) 0))
(assert (>= (- 5 ( + ( + ( + ( + ( + ( + ( + (* 3 x11) (* 4 x22) ) (* -5 x4) ) (* -1 x2) ) (* 4 x5) ) (* -1 x7) ) (* -5 x8) ) (* -3 x17) )) 0))
(assert (>= (- -1 ( + ( + ( + ( + (* -3 x13) (* -2 x8) ) (* -3 x6) ) (* 2 x1) ) (* -3 x5) )) 0))
(assert (>= (- 5 ( + ( + ( + ( + ( + ( + ( + ( + (* -4 x4) (* 4 x12) ) (* -3 x9) ) (* 4 x8) ) (* 3 x7) ) (* -3 x6) ) x5 ) (* -4 x3) ) (* -5 x10) )) 0))
(assert (>= (- 5 ( + ( + ( + ( + (* 3 x12) (* 3 x8) ) x4 ) (* -2 x3) ) (* 2 x9) )) 0))
(assert (>= (- -2 ( + ( + ( + ( + ( + ( + ( + (* 3 x25) (* -4 x17) ) (* 5 x4) ) (* 5 x5) ) (* 4 x6) ) (* 4 x8) ) (* 4 x22) ) (* -2 x24) )) 0))
(assert (>= (- -3 ( + ( + ( + ( + ( + (* -5 x14) (* -4 x9) ) (* -1 x8) ) (* -3 x3) ) (* 3 x4) ) (* 3 x5) )) 0))
(assert (>= (- -3 ( + ( + ( + ( + (* -3 x22) (* -2 x11) ) (* -3 x8) ) (* -2 x2) ) (* 4 x6) )) 0))
(assert (>= (- -5 ( + ( + ( + (* -4 x6) (* 3 x24) ) (* -5 x8) ) (* -4 x11) )) 0))
(assert (>= (- -5 ( + ( + ( + ( + (* -4 x11) (* -3 x4) ) (* 4 x3) ) (* 2 x7) ) (* -4 x17) )) 0))
(assert (>= (- 3 ( + ( + ( + ( + ( + (* -3 x4) (* -5 x17) ) (* -2 x6) ) x2 ) x8 ) (* -1 x22) )) 0))
(assert (>= (- 3 ( + (* -4 x24) (* 4 x11) )) 0))
(assert (>= (- -2 ( + ( + ( + ( + ( + ( + ( + ( + (* -1 x7) (* -4 x22) ) (* -4 x5) ) (* 2 x4) ) (* 5 x6) ) (* -1 x8) ) (* 3 x11) ) (* 5 x17) ) (* -5 x24) )) 0))
(assert (>= (- -4 ( + ( + ( + ( + ( + ( + (* 2 x2) (* -3 x11) ) (* -2 x8) ) (* -2 x6) ) (* -3 x4) ) (* 5 x3) ) (* -3 x7) )) 0))
(assert (>= (- 4 ( + ( + (* -1 x4) (* -1 x1) ) (* 2 x10) )) 0))
(assert (>= (- -5 (* -3 x6)) 0))
(assert (>= (- 2 ( + ( + ( + ( + (* 2 x8) (* 3 x4) ) (* 4 x5) ) (* 4 x9) ) (* -1 x10) )) 0))
(assert (>= (- 5 ( + ( + ( + (* -5 x3) x4 ) (* -4 x1) ) (* -5 x21) )) 0))
(assert (>= (- -5 ( + (* 3 x5) (* -3 x26) )) 0))
(assert (>= (- 0 ( + ( + ( + ( + ( + ( + ( + ( + (* 5 x7) (* -4 x26) ) (* -1 x19) ) (* 2 x4) ) (* -5 x3) ) (* -5 x1) ) (* -2 x5) ) (* -2 x10) ) (* 4 x15) )) 0))
(assert (>= (- 3 (* -5 x8)) 0))
(assert (>= (- -4 ( + ( + (* -3 x9) (* -4 x6) ) (* 3 x4) )) 0))
(assert (>= (- 0 ( + (* 3 x10) x1 )) 0))
(assert (>= (- -5 ( + ( + ( + ( + (* 2 x15) x7 ) (* -2 x4) ) (* 4 x3) ) (* -3 x19) )) 0))
(assert (>= (- -3 ( + (* -5 x8) (* 5 x7) )) 0))
(assert (>= (- 5 ( + ( + ( + ( + ( + ( + (* 4 x5) (* 4 x6) ) (* -2 x3) ) (* -2 x1) ) (* 2 x4) ) (* -5 x7) ) (* 3 x8) )) 0))
(assert (>= (- 3 ( + ( + (* 2 x10) (* 5 x6) ) (* 4 x4) )) 0))
(assert (>= (- 1 (* -3 x4)) 0))
(assert (>= (- 3 ( + ( + ( + ( + x9 (* -4 x28) ) (* -5 x3) ) x6 ) (* 4 x10) )) 0))
(assert (>= (- 3 ( + ( + ( + ( + ( + ( + ( + (* 2 x6) (* 4 x12) ) (* -5 x3) ) (* -4 x4) ) (* -2 x5) ) (* -2 x7) ) (* 3 x8) ) (* -1 x9) )) 0))
(assert (>= (- -3 ( + ( + (* -5 x4) (* -4 x3) ) (* -5 x8) )) 0))
(assert (>= (- -4 ( + ( + x21 x4 ) (* -4 x7) )) 0))
(assert (>= (- -1 ( + ( + ( + ( + ( + (* 5 x8) (* 4 x5) ) (* -4 x1) ) (* -3 x3) ) (* 4 x4) ) (* -4 x19) )) 0))
(assert (>= (- -2 ( + ( + ( + (* -5 x9) (* -2 x12) ) (* -5 x4) ) (* 5 x8) )) 0))
(assert (>= (- 1 ( + (* 2 x1) (* 5 x8) )) 0))
(assert (>= (- 2 ( + ( + ( + ( + (* 4 x12) (* -1 x5) ) (* -3 x3) ) (* 5 x8) ) (* 3 x9) )) 0))
(assert (>= (- -4 ( + ( + (* 2 x3) x6 ) (* -2 x2) )) 0))
(assert (>= (- 4 ( + ( + ( + ( + ( + ( + ( + ( + (* -1 x18) (* 3 x8) ) (* -1 x7) ) (* 3 x6) ) (* -1 x1) ) (* 5 x3) ) (* 2 x4) ) (* -3 x5) ) (* -5 x11) )) 0))
(assert (>= (- -4 ( + ( + (* 3 x7) (* 4 x3) ) (* 2 x6) )) 0))
(assert (>= (- -5 ( + ( + ( + ( + (* -4 x2) (* -3 x6) ) (* -4 x5) ) (* -2 x4) ) (* -5 x8) )) 0))
(check-sat)
(exit)